p cnf 140 516
75 83 0
62 71 100 0
39 79 0
67 85 106 0
55 111 0
68 73 0
52 86 0
77 84 0
87 89 0
69 90 0
19 51 91 0
57 74 95 0
13 48 0
43 45 46 47 0
40 41 42 0
28 30 37 78 120 0
25 76 0
22 24 59 60 0
18 21 36 65 0
15 32 92 93 0
58 72 0
49 97 98 0
34 35 38 101 0
26 80 0
103 104 107 0
23 88 0
108 109 110 125 136 0
54 66 112 113 0
16 20 31 64 0
14 96 99 0
53 114 0
29 81 115 0
27 105 116 0
61 117 118 0
-17 -75 0
-17 -121 0
-17 -85 0
-75 -121 0
-75 -85 0
-85 -121 0
-33 -91 0
-63 -91 0
-37 -91 0
-33 -63 0
-33 -37 0
-37 -63 0
-80 -101 0
-20 -101 0
-94 -101 0
-20 -80 0
-80 -94 0
-20 -94 0
-50 -96 0
-27 -96 0
-96 -117 0
-27 -50 0
-50 -117 0
-27 -117 0
-17 -91 0
-17 -101 0
-17 -96 0
-91 -101 0
-91 -96 0
-96 -101 0
-33 -75 0
-75 -80 0
-50 -75 0
-33 -80 0
-33 -50 0
-50 -80 0
-63 -121 0
-20 -121 0
-27 -121 0
-20 -63 0
-27 -63 0
-20 -27 0
-37 -85 0
-85 -94 0
-85 -117 0
-37 -94 0
-37 -117 0
-94 -117 0
-111 -127 0
-73 -127 0
-73 -111 0
-24 -122 0
-24 -32 0
-32 -122 0
-53 -123 0
-53 -81 0
-81 -123 0
-24 -127 0
-53 -127 0
-24 -53 0
-111 -122 0
-111 -123 0
-122 -123 0
-32 -73 0
-73 -81 0
-32 -81 0
-84 -119 0
-69 -84 0
-69 -119 0
-88 -112 0
-64 -88 0
-64 -112 0
-29 -44 0
-44 -116 0
-29 -116 0
-84 -88 0
-44 -84 0
-44 -88 0
-112 -119 0
-29 -119 0
-29 -112 0
-64 -69 0
-69 -116 0
-64 -116 0
-13 -42 0
-15 -70 0
-13 -70 0
-15 -42 0
-126 -130 0
-68 -126 0
-86 -126 0
-68 -130 0
-86 -130 0
-68 -86 0
-47 -57 0
-41 -57 0
-57 -78 0
-41 -47 0
-47 -78 0
-41 -78 0
-21 -22 0
-22 -93 0
-22 -49 0
-21 -93 0
-21 -49 0
-49 -93 0
-103 -108 0
-103 -113 0
-103 -131 0
-108 -113 0
-108 -131 0
-113 -131 0
-57 -126 0
-22 -126 0
-103 -126 0
-22 -57 0
-57 -103 0
-22 -103 0
-47 -130 0
-21 -130 0
-108 -130 0
-21 -47 0
-47 -108 0
-21 -108 0
-41 -68 0
-68 -93 0
-68 -113 0
-41 -93 0
-41 -113 0
-93 -113 0
-78 -86 0
-49 -86 0
-86 -131 0
-49 -78 0
-78 -131 0
-49 -131 0
-71 -132 0
-82 -132 0
-106 -132 0
-71 -82 0
-71 -106 0
-82 -106 0
-46 -74 0
-74 -134 0
-74 -120 0
-46 -134 0
-46 -120 0
-120 -134 0
-36 -60 0
-58 -60 0
-60 -97 0
-36 -58 0
-36 -97 0
-58 -97 0
-104 -125 0
-16 -104 0
-104 -129 0
-16 -125 0
-125 -129 0
-16 -129 0
-74 -132 0
-60 -132 0
-104 -132 0
-60 -74 0
-74 -104 0
-60 -104 0
-46 -71 0
-36 -71 0
-71 -125 0
-36 -46 0
-46 -125 0
-36 -125 0
-82 -134 0
-58 -82 0
-16 -82 0
-58 -134 0
-16 -134 0
-16 -58 0
-106 -120 0
-97 -106 0
-106 -129 0
-97 -120 0
-120 -129 0
-97 -129 0
-135 -137 0
-55 -135 0
-135 -138 0
-133 -135 0
-52 -135 0
-55 -137 0
-137 -138 0
-133 -137 0
-52 -137 0
-55 -138 0
-55 -133 0
-52 -55 0
-133 -138 0
-52 -138 0
-52 -133 0
-102 -124 0
-77 -124 0
-89 -124 0
-90 -124 0
-124 -139 0
-77 -102 0
-89 -102 0
-90 -102 0
-102 -139 0
-77 -89 0
-77 -90 0
-77 -139 0
-89 -90 0
-89 -139 0
-90 -139 0
-19 -95 0
-19 -48 0
-19 -45 0
-19 -140 0
-19 -30 0
-48 -95 0
-45 -95 0
-95 -140 0
-30 -95 0
-45 -48 0
-48 -140 0
-30 -48 0
-45 -140 0
-30 -45 0
-30 -140 0
-25 -59 0
-25 -128 0
-25 -65 0
-25 -72 0
-25 -98 0
-59 -128 0
-59 -65 0
-59 -72 0
-59 -98 0
-65 -128 0
-72 -128 0
-98 -128 0
-65 -72 0
-65 -98 0
-72 -98 0
-35 -107 0
-23 -35 0
-35 -109 0
-31 -35 0
-12 -35 0
-23 -107 0
-107 -109 0
-31 -107 0
-12 -107 0
-23 -109 0
-23 -31 0
-12 -23 0
-31 -109 0
-12 -109 0
-12 -31 0
-14 -114 0
-11 -14 0
-10 -14 0
-14 -105 0
-14 -118 0
-11 -114 0
-10 -114 0
-105 -114 0
-114 -118 0
-10 -11 0
-11 -105 0
-11 -118 0
-10 -105 0
-10 -118 0
-105 -118 0
-124 -135 0
-19 -135 0
-25 -135 0
-35 -135 0
-14 -135 0
-19 -124 0
-25 -124 0
-35 -124 0
-14 -124 0
-19 -25 0
-19 -35 0
-14 -19 0
-25 -35 0
-14 -25 0
-14 -35 0
-102 -137 0
-95 -137 0
-59 -137 0
-107 -137 0
-114 -137 0
-95 -102 0
-59 -102 0
-102 -107 0
-102 -114 0
-59 -95 0
-95 -107 0
-95 -114 0
-59 -107 0
-59 -114 0
-107 -114 0
-55 -77 0
-48 -55 0
-55 -128 0
-23 -55 0
-11 -55 0
-48 -77 0
-77 -128 0
-23 -77 0
-11 -77 0
-48 -128 0
-23 -48 0
-11 -48 0
-23 -128 0
-11 -128 0
-11 -23 0
-89 -138 0
-45 -138 0
-65 -138 0
-109 -138 0
-10 -138 0
-45 -89 0
-65 -89 0
-89 -109 0
-10 -89 0
-45 -65 0
-45 -109 0
-10 -45 0
-65 -109 0
-10 -65 0
-10 -109 0
-90 -133 0
-133 -140 0
-72 -133 0
-31 -133 0
-105 -133 0
-90 -140 0
-72 -90 0
-31 -90 0
-90 -105 0
-72 -140 0
-31 -140 0
-105 -140 0
-31 -72 0
-72 -105 0
-31 -105 0
-52 -139 0
-30 -52 0
-52 -98 0
-12 -52 0
-52 -118 0
-30 -139 0
-98 -139 0
-12 -139 0
-118 -139 0
-30 -98 0
-12 -30 0
-30 -118 0
-12 -98 0
-98 -118 0
-12 -118 0
-9 -62 0
-9 -39 0
-39 -62 0
-18 -76 0
-76 -92 0
-18 -92 0
-34 -136 0
-34 -54 0
-54 -136 0
-9 -76 0
-9 -34 0
-34 -76 0
-18 -62 0
-62 -136 0
-18 -136 0
-39 -92 0
-39 -54 0
-54 -92 0
-56 -83 0
-56 -100 0
-56 -79 0
-56 -67 0
-83 -100 0
-79 -83 0
-67 -83 0
-79 -100 0
-67 -100 0
-67 -79 0
-7 -8 0
-8 -87 0
-6 -8 0
-5 -8 0
-7 -87 0
-6 -7 0
-5 -7 0
-6 -87 0
-5 -87 0
-5 -6 0
-4 -51 0
-43 -51 0
-40 -51 0
-28 -51 0
-4 -43 0
-4 -40 0
-4 -28 0
-40 -43 0
-28 -43 0
-28 -40 0
-26 -38 0
-38 -110 0
-38 -66 0
-3 -38 0
-26 -110 0
-26 -66 0
-3 -26 0
-66 -110 0
-3 -110 0
-3 -66 0
-2 -99 0
-1 -99 0
-99 -115 0
-61 -99 0
-1 -2 0
-2 -115 0
-2 -61 0
-1 -115 0
-1 -61 0
-61 -115 0
-8 -56 0
-51 -56 0
-38 -56 0
-56 -99 0
-8 -51 0
-8 -38 0
-8 -99 0
-38 -51 0
-51 -99 0
-38 -99 0
-7 -83 0
-4 -83 0
-26 -83 0
-2 -83 0
-4 -7 0
-7 -26 0
-2 -7 0
-4 -26 0
-2 -4 0
-2 -26 0
-87 -100 0
-43 -100 0
-100 -110 0
-1 -100 0
-43 -87 0
-87 -110 0
-1 -87 0
-43 -110 0
-1 -43 0
-1 -110 0
-6 -79 0
-40 -79 0
-66 -79 0
-79 -115 0
-6 -40 0
-6 -66 0
-6 -115 0
-40 -66 0
-40 -115 0
-66 -115 0
-5 -67 0
-28 -67 0
-3 -67 0
-61 -67 0
-5 -28 0
-3 -5 0
-5 -61 0
-3 -28 0
-28 -61 0
-3 -61 0
